12° run output:
{
    "Function": "kroB750.tsp",
    "Problem dimension": [
        434,
        519,
        148,
        325,
        655,
        105,
        336,
        378,
        719,
        328,
        239,
        162,
        675,
        102,
        736,
        257,
        215,
        184,
        405,
        31,
        357,
        713,
        745,
        244,
        131,
        588,
        243,
        641,
        227,
        479,
        730,
        390,
        490,
        301,
        451,
        623,
        8,
        160,
        152,
        300,
        45,
        108,
        65,
        679,
        96,
        427,
        743,
        386,
        418,
        288,
        489,
        710,
        649,
        458,
        561,
        445,
        685,
        485,
        394,
        550,
        286,
        397,
        61,
        594,
        589,
        392,
        41,
        154,
        200,
        177,
        209,
        518,
        263,
        255,
        4,
        113,
        306,
        382,
        23,
        525,
        183,
        724,
        538,
        293,
        388,
        677,
        646,
        584,
        464,
        414,
        121,
        505,
        666,
        64,
        94,
        217,
        615,
        133,
        233,
        47,
        672,
        225,
        626,
        657,
        240,
        376,
        193,
        509,
        634,
        138,
        287,
        706,
        573,
        654,
        531,
        457,
        237,
        51,
        400,
        470,
        428,
        443,
        150,
        342,
        676,
        642,
        245,
        350,
        375,
        40,
        256,
        323,
        155,
        238,
        124,
        136,
        370,
        635,
        628,
        99,
        14,
        144,
        87,
        22,
        134,
        465,
        254,
        492,
        314,
        34,
        576,
        0,
        37,
        92,
        690,
        571,
        435,
        135,
        56,
        282,
        570,
        164,
        25,
        417,
        467,
        472,
        448,
        249,
        70,
        603,
        275,
        303,
        352,
        272,
        77,
        242,
        459,
        409,
        474,
        69,
        567,
        196,
        369,
        74,
        528,
        726,
        26,
        362,
        560,
        170,
        391,
        112,
        583,
        192,
        620,
        85,
        20,
        408,
        673,
        522,
        118,
        279,
        630,
        149,
        171,
        210,
        699,
        361,
        425,
        219,
        109,
        667,
        33,
        426,
        602,
        586,
        115,
        469,
        728,
        665,
        587,
        46,
        658,
        126,
        36,
        76,
        265,
        659,
        424,
        230,
        178,
        241,
        365,
        433,
        305,
        554,
        696,
        322,
        544,
        714,
        440,
        619,
        201,
        194,
        289,
        411,
        605,
        309,
        67,
        721,
        461,
        407,
        416,
        368,
        700,
        38,
        688,
        86,
        643,
        337,
        712,
        364,
        367,
        176,
        499,
        629,
        703,
        663,
        308,
        429,
        534,
        578,
        72,
        453,
        79,
        71,
        733,
        662,
        48,
        513,
        120,
        302,
        475,
        741,
        609,
        12,
        477,
        487,
        553,
        339,
        13,
        431,
        720,
        536,
        163,
        377,
        661,
        380,
        582,
        185,
        312,
        471,
        331,
        250,
        450,
        101,
        694,
        717,
        251,
        441,
        697,
        273,
        604,
        610,
        653,
        324,
        574,
        187,
        476,
        206,
        436,
        169,
        313,
        259,
        403,
        189,
        168,
        564,
        30,
        104,
        98,
        42,
        43,
        202,
        88,
        593,
        15,
        103,
        355,
        223,
        533,
        701,
        647,
        514,
        110,
        590,
        383,
        569,
        404,
        222,
        498,
        592,
        549,
        179,
        24,
        146,
        311,
        231,
        680,
        62,
        304,
        246,
        460,
        507,
        568,
        111,
        82,
        54,
        18,
        512,
        502,
        627,
        723,
        143,
        463,
        637,
        348,
        28,
        748,
        384,
        161,
        341,
        613,
        504,
        740,
        608,
        481,
        389,
        616,
        709,
        264,
        606,
        432,
        707,
        501,
        277,
        747,
        535,
        191,
        395,
        3,
        229,
        711,
        327,
        542,
        565,
        1,
        393,
        253,
        742,
        738,
        363,
        496,
        7,
        419,
        541,
        708,
        491,
        140,
        338,
        147,
        622,
        406,
        78,
        157,
        495,
        581,
        595,
        488,
        520,
        580,
        95,
        632,
        6,
        510,
        73,
        89,
        91,
        702,
        57,
        158,
        545,
        374,
        532,
        151,
        66,
        166,
        527,
        281,
        122,
        100,
        631,
        600,
        617,
        211,
        562,
        644,
        68,
        722,
        81,
        343,
        618,
        372,
        83,
        639,
        379,
        32,
        224,
        410,
        577,
        349,
        52,
        207,
        681,
        59,
        732,
        195,
        668,
        598,
        645,
        650,
        139,
        746,
        530,
        455,
        290,
        447,
        415,
        692,
        725,
        462,
        452,
        449,
        579,
        483,
        39,
        344,
        546,
        9,
        670,
        329,
        63,
        636,
        737,
        442,
        137,
        591,
        468,
        660,
        316,
        705,
        678,
        493,
        601,
        412,
        735,
        482,
        607,
        354,
        84,
        633,
        356,
        315,
        326,
        612,
        671,
        197,
        319,
        334,
        693,
        526,
        494,
        186,
        50,
        119,
        351,
        506,
        439,
        58,
        585,
        205,
        729,
        480,
        53,
        44,
        235,
        156,
        204,
        125,
        614,
        508,
        621,
        199,
        454,
        345,
        220,
        385,
        216,
        307,
        266,
        695,
        182,
        261,
        145,
        744,
        294,
        529,
        218,
        664,
        16,
        260,
        165,
        19,
        27,
        517,
        540,
        295,
        366,
        684,
        543,
        466,
        141,
        727,
        153,
        93,
        117,
        597,
        521,
        21,
        718,
        285,
        566,
        552,
        262,
        446,
        283,
        332,
        232,
        248,
        572,
        214,
        276,
        35,
        60,
        17,
        402,
        396,
        437,
        387,
        515,
        500,
        116,
        548,
        174,
        49,
        106,
        252,
        575,
        340,
        271,
        473,
        114,
        421,
        142,
        90,
        704,
        734,
        181,
        739,
        203,
        558,
        648,
        478,
        321,
        258,
        221,
        97,
        159,
        320,
        557,
        80,
        624,
        127,
        523,
        278,
        130,
        652,
        371,
        559,
        674,
        291,
        556,
        107,
        551,
        213,
        299,
        497,
        5,
        296,
        689,
        381,
        715,
        188,
        456,
        173,
        547,
        438,
        167,
        555,
        716,
        284,
        484,
        698,
        420,
        212,
        444,
        359,
        511,
        234,
        292,
        208,
        29,
        640,
        358,
        422,
        524,
        129,
        317,
        330,
        132,
        175,
        353,
        638,
        401,
        682,
        669,
        539,
        226,
        128,
        172,
        310,
        373,
        55,
        656,
        335,
        346,
        268,
        360,
        333,
        274,
        423,
        270,
        516,
        683,
        599,
        297,
        687,
        563,
        2,
        651,
        347,
        10,
        247,
        198,
        749,
        625,
        731,
        318,
        413,
        123,
        398,
        228,
        267,
        503,
        280,
        686,
        399,
        537,
        180,
        269,
        190,
        298,
        611,
        430,
        691,
        75,
        11,
        236,
        486,
        596
    ],
    "Global Optimum": 0,
    "Algorithm": "Genetic algorithm",
    "Parameters": {
        "population": 30,
        "offspring": 30,
        "mutation probability": 0.0013333333333333333,
        "crossover probability": 0.9
    },
    "Fitness": 1003889,
    "Solution": [
        434,
        519,
        148,
        325,
        655,
        105,
        336,
        378,
        719,
        328,
        239,
        162,
        675,
        102,
        736,
        257,
        215,
        184,
        405,
        31,
        357,
        713,
        745,
        244,
        131,
        588,
        243,
        641,
        227,
        479,
        730,
        390,
        490,
        301,
        451,
        623,
        8,
        160,
        152,
        300,
        45,
        108,
        65,
        679,
        96,
        427,
        743,
        386,
        418,
        288,
        489,
        710,
        649,
        458,
        561,
        445,
        685,
        485,
        394,
        550,
        286,
        397,
        61,
        594,
        589,
        392,
        41,
        154,
        200,
        177,
        209,
        518,
        263,
        255,
        4,
        113,
        306,
        382,
        23,
        525,
        183,
        724,
        538,
        293,
        388,
        677,
        646,
        584,
        464,
        414,
        121,
        505,
        666,
        64,
        94,
        217,
        615,
        133,
        233,
        47,
        672,
        225,
        626,
        657,
        240,
        376,
        193,
        509,
        634,
        138,
        287,
        706,
        573,
        654,
        531,
        457,
        237,
        51,
        400,
        470,
        428,
        443,
        150,
        342,
        676,
        642,
        245,
        350,
        375,
        40,
        256,
        323,
        155,
        238,
        124,
        136,
        370,
        635,
        628,
        99,
        14,
        144,
        87,
        22,
        134,
        465,
        254,
        492,
        314,
        34,
        576,
        0,
        37,
        92,
        690,
        571,
        435,
        135,
        56,
        282,
        570,
        164,
        25,
        417,
        467,
        472,
        448,
        249,
        70,
        603,
        275,
        303,
        352,
        272,
        77,
        242,
        459,
        409,
        474,
        69,
        567,
        196,
        369,
        74,
        528,
        726,
        26,
        362,
        560,
        170,
        391,
        112,
        583,
        192,
        620,
        85,
        20,
        408,
        673,
        522,
        118,
        279,
        630,
        149,
        171,
        210,
        699,
        361,
        425,
        219,
        109,
        667,
        33,
        426,
        602,
        586,
        115,
        469,
        728,
        665,
        587,
        46,
        658,
        126,
        36,
        76,
        265,
        659,
        424,
        230,
        178,
        241,
        365,
        433,
        305,
        554,
        696,
        322,
        544,
        714,
        440,
        619,
        201,
        194,
        289,
        411,
        605,
        309,
        67,
        721,
        461,
        407,
        416,
        368,
        700,
        38,
        688,
        86,
        643,
        337,
        712,
        364,
        367,
        176,
        499,
        629,
        703,
        663,
        308,
        429,
        534,
        578,
        72,
        453,
        79,
        71,
        733,
        662,
        48,
        513,
        120,
        302,
        475,
        741,
        609,
        12,
        477,
        487,
        553,
        339,
        13,
        431,
        720,
        536,
        163,
        377,
        661,
        380,
        582,
        185,
        312,
        471,
        331,
        250,
        450,
        101,
        694,
        717,
        251,
        441,
        697,
        273,
        604,
        610,
        653,
        324,
        574,
        187,
        476,
        206,
        436,
        169,
        313,
        259,
        403,
        189,
        168,
        564,
        30,
        104,
        98,
        42,
        43,
        202,
        88,
        593,
        15,
        103,
        355,
        223,
        533,
        701,
        647,
        514,
        110,
        590,
        383,
        569,
        404,
        222,
        498,
        592,
        549,
        179,
        24,
        146,
        311,
        231,
        680,
        62,
        304,
        246,
        460,
        507,
        568,
        111,
        82,
        54,
        18,
        512,
        502,
        627,
        723,
        143,
        463,
        637,
        348,
        28,
        748,
        384,
        161,
        341,
        613,
        504,
        740,
        608,
        481,
        389,
        616,
        709,
        264,
        606,
        432,
        707,
        501,
        277,
        747,
        535,
        191,
        395,
        3,
        229,
        711,
        327,
        542,
        565,
        1,
        393,
        253,
        742,
        738,
        363,
        496,
        7,
        419,
        541,
        708,
        491,
        140,
        338,
        147,
        622,
        406,
        78,
        157,
        495,
        581,
        595,
        488,
        520,
        580,
        95,
        632,
        6,
        510,
        73,
        89,
        91,
        702,
        57,
        158,
        545,
        374,
        532,
        151,
        66,
        166,
        527,
        281,
        122,
        100,
        631,
        600,
        617,
        211,
        562,
        644,
        68,
        722,
        81,
        343,
        618,
        372,
        83,
        639,
        379,
        32,
        224,
        410,
        577,
        349,
        52,
        207,
        681,
        59,
        732,
        195,
        668,
        598,
        645,
        650,
        139,
        746,
        530,
        455,
        290,
        447,
        415,
        692,
        725,
        462,
        452,
        449,
        579,
        483,
        39,
        344,
        546,
        9,
        670,
        329,
        63,
        636,
        737,
        442,
        137,
        591,
        468,
        660,
        316,
        705,
        678,
        493,
        601,
        412,
        735,
        482,
        607,
        354,
        84,
        633,
        356,
        315,
        326,
        612,
        671,
        197,
        319,
        334,
        693,
        526,
        494,
        186,
        50,
        119,
        351,
        506,
        439,
        58,
        585,
        205,
        729,
        480,
        53,
        44,
        235,
        156,
        204,
        125,
        614,
        508,
        621,
        199,
        454,
        345,
        220,
        385,
        216,
        307,
        266,
        695,
        182,
        261,
        145,
        744,
        294,
        529,
        218,
        664,
        16,
        260,
        165,
        19,
        27,
        517,
        540,
        295,
        366,
        684,
        543,
        466,
        141,
        727,
        153,
        93,
        117,
        597,
        521,
        21,
        718,
        285,
        566,
        552,
        262,
        446,
        283,
        332,
        232,
        248,
        572,
        214,
        276,
        35,
        60,
        17,
        402,
        396,
        437,
        387,
        515,
        500,
        116,
        548,
        174,
        49,
        106,
        252,
        575,
        340,
        271,
        473,
        114,
        421,
        142,
        90,
        704,
        734,
        181,
        739,
        203,
        558,
        648,
        478,
        321,
        258,
        221,
        97,
        159,
        320,
        557,
        80,
        624,
        127,
        523,
        278,
        130,
        652,
        371,
        559,
        674,
        291,
        556,
        107,
        551,
        213,
        299,
        497,
        5,
        296,
        689,
        381,
        715,
        188,
        456,
        173,
        547,
        438,
        167,
        555,
        716,
        284,
        484,
        698,
        420,
        212,
        444,
        359,
        511,
        234,
        292,
        208,
        29,
        640,
        358,
        422,
        524,
        129,
        317,
        330,
        132,
        175,
        353,
        638,
        401,
        682,
        669,
        539,
        226,
        128,
        172,
        310,
        373,
        55,
        656,
        335,
        346,
        268,
        360,
        333,
        274,
        423,
        270,
        516,
        683,
        599,
        297,
        687,
        563,
        2,
        651,
        347,
        10,
        247,
        198,
        749,
        625,
        731,
        318,
        413,
        123,
        398,
        228,
        267,
        503,
        280,
        686,
        399,
        537,
        180,
        269,
        190,
        298,
        611,
        430,
        691,
        75,
        11,
        236,
        486,
        596
    ],
    "Nb of functions evaluations": 50010,
    "Computational time in seconds": 843.3363258838654,
    "Stopping criterion in evaluations": 50000
}